\ Model Linearization Heuristic_copy
\ LP format - for model browsing. Use MPS format to capture full model detail.
Maximize
 
Subject To
 R1: - u[3] <= -605.1195289059342
 R2: u[3] <= 440.7684580869184
Bounds
 u[3] free
End
